\* MinHeat *\
Minimize
Power_equation: 6 Res1Curr + 10 Res2Curr + 4 Res3Curr + 7 Res4Curr
 + 3 Res5Curr
Subject To
Bounds
3 <= Res1Curr <= 5
1 <= Res2Curr <= 3
1 <= Res3Curr <= 4
1 <= Res4Curr <= 2
3 <= Res5Curr <= 5
End
